
723
33600
 30238      1
 30220      1
 30206      1
 30192      1
 30184      1
 30152      1
 30094      1
 30060      1
 30038      1
 30032      1
 30022      1
 30004      1
 29992      1
 29958      1
 29936      1
 29934      1
 29926      1
 29908      1
 29860      1
 29838      1
 29803      1
 29802      1
 29800      1
 29797      1
 29764      1
 29756      1
 29733      1
 29702      1
 29687      1
 29668      1
 29649      1
 29648      1
 29606      1
 29574      1
 29573      1
 29544      1
 29543      1
 29542      1
 29541      1
 29524      1
 29514      1
 29508      1
 29468      1
 29448      1
 29440      1
 29419      1
 29413      1
 29392      1
 29382      1
 29378      1
 29349      1
 29332      1
 29284      1
 29256      1
 29245      1
 29233      1
 29227      1
 29218      1
 29200      1
 29197      1
 29186      1
 29185      1
 29178      1
 29146      1
 29124      1
 29106      1
 29064      1
 29050      1
 29035      1
 29028      1
 29008      1
 28983      1
 28982      1
 28895      1
 28883      1
 28860      1
 28831      1
 28822      1
 28816      1
 28776      1
 28755      1
 28748      1
 28742      1
 28639      1
 28624      1
 28623      1
 28616      1
 28595      1
 28546      1
 28500      1
 28488      1
 28485      1
 28427      1
 28420      1
 28410      1
 28386      1
 28378      1
 28338      1
 28335      1
 28323      1
 28304      1
 28283      1
 28282      1
 28242      1
 28207      1
 28152      1
 28110      1
 28077      1
 28028      1
 27955      1
 27920      1
 27886      1
 27868      1
 27854      1
 27811      1
 27803      1
 27795      1
 27788      1
 27786      1
 27752      1
 27700      1
 27659      1
 27613      1
 27582      1
 27498      1
 27440      1
 27432      1
 27422      1
 27401      1
 27336      1
 27293      1
 27244      1
 27200      1
 27184      1
 27164      1
 27154      1
 27153      1
 27044      1
 27022      1
 26976      1
 26948      1
 26896      1
 26855      1
 26808      1
 26715      1
 26712      1
 26707      1
 26582      1
 26550      1
 26547      1
 26544      1
 26492      1
 26388      1
 26352      1
 26338      1
 26331      1
 26056      1
 26050      1
 26018      1
 25960      1
 25891      1
 25872      1
 25691      1
 25588      1
 25572      1
 25556      1
 25520      1
 25507      1
 25481      1
 25476      1
 25460      1
 25430      1
 25378      1
 25328      1
 25324      1
 25144      1
 25048      1
 24903      1
 24895      1
 24871      1
 24670      1
 24656      1
 24610      1
 24468      1
 24308      1
 24139      1
 24131      1
 24107      1
 23984      1
 23976      1
 23960      1
 23880      1
 23804      1
 23758      1
 23690      1
 23280      1
 23223      1
 23215      1
 23191      1
 23052      1
 22972      1
 22956      1
 22932      1
 22648      1
 22640      1
 22586      1
 22568      1
 22426      1
 22406      1
 22374      1
 22123      1
 22115      1
 22019      1
 22011      1
 21987      1
 21872      1
 21468      1
 21420      1
 21324      1
 21248      1
 21080      1
 21066      1
 20984      1
 20976      1
 20882      1
 20850      1
 20774      1
 20679      1
 20671      1
 20647      1
 20614      1
 20496      1
 19824      1
 19572      1
 19492      1
 19196      1
 19178      1
 19176      1
 19108      1
 19088      1
 19080      1
 19071      1
 19067      1
 18894      1
 18765      1
 18192      1
 17136      1
 16852      1
 16836      1
 16830      1
 16824      1
 16822      1
 16820      1
 16816      1
 16814      1
 16813      1
 16809      1
 16808      1
 16806      1
 16805      1
 16804      1
 16802      1
 16801      1
 16544      1
 14592      1
 14008      1
 14006      1
 14004      1
 14001      1
 14000      1
 13998      1
 13997      1
 13993      1
 13992      1
 13991      1
 13990      1
 13988      1
 13982      1
 13978      1
 13972      1
 13964      1
 13744      1
 13596      1
 13008      1
 12848      1
 12512      1
 12410      1
 12363      1
 12258      1
 12112      1
 12111      1
 12109      1
 12104      1
 12024      1
 12022      1
 12004      1
 11764      1
 11696      1
 11692      1
 11424      1
 11410      1
 10930      1
 10795      1
 10775      1
 10769      1
 10690      1
 10626      1
 10544      1
 10520      1
 10446      1
 10440      1
 10304      1
 10236      1
 10156      1
 10116      1
  9776      1
  9679      1
  9659      1
  9651      1
  9571      1
  9565      1
  9560      1
  9330      1
  9314      1
  9268      1
  9208      1
  9182      1
  9136      1
  9128      1
  8892      1
  8876      1
  8860      1
  8675      1
  8655      1
  8649      1
  8624      1
  8262      1
  8202      1
  8164      1
  8107      1
  8040      1
  8024      1
  8016      1
  7911      1
  7885      1
  7795      1
  7748      1
  7612      1
  7568      1
  7494      1
  7472      1
  7467      1
  7442      1
  7275      1
  7249      1
  7128      1
  7048      1
  6960      1
  6900      1
  6854      1
  6810      1
  6788      1
  6772      1
  6767      1
  6736      1
  6708      1
  6692      1
  6684      1
  6591      1
  6534      1
  6448      1
  6435      1
  6425      1
  6376      1
  6322      1
  6296      1
  6124      1
  6100      1
  6059      1
  6054      1
  5924      1
  5904      1
  5879      1
  5878      1
  5864      1
  5850      1
  5752      1
  5739      1
  5692      1
  5672      1
  5621      1
  5616      1
  5602      1
  5482      1
  5468      1
  5374      1
  5373      1
  5360      1
  5344      1
  5300      1
  5257      1
  5224      1
  5167      1
  5136      1
  5086      1
  5018      1
  4991      1
  4951      1
  4924      1
  4888      1
  4846      1
  4844      1
  4839      1
  4831      1
  4825      1
  4800      1
  4790      1
  4780      1
  4762      1
  4752      1
  4749      1
  4644      1
  4603      1
  4578      1
  4552      1
  4496      1
  4495      1
  4479      1
  4477      1
  4466      1
  4449      1
  4434      1
  4432      1
  4431      1
  4399      1
  4392      1
  4386      1
  4354      1
  4346      1
  4326      1
  4324      1
  4264      1
  4263      1
  4252      1
  4214      1
  4176      1
  4171      1
  4149      1
  4135      1
  4128      1
  4050      1
  4044      1
  4024      1
  3996      1
  3982      1
  3975      1
  3956      1
  3931      1
  3921      1
  3856      1
  3853      1
  3850      1
  3849      1
  3812      1
  3805      1
  3794      1
  3784      1
  3746      1
  3714      1
  3696      1
  3686      1
  3682      1
  3681      1
  3671      1
  3654      1
  3645      1
  3641      1
  3631      1
  3624      1
  3604      1
  3572      1
  3564      1
  3544      1
  3543      1
  3536      1
  3522      1
  3518      1
  3491      1
  3488      1
  3485      1
  3444      1
  3420      1
  3412      1
  3406      1
  3384      1
  3383      1
  3382      1
  3381      1
  3358      1
  3330      1
  3312      1
  3293      1
  3268      1
  3261      1
  3250      1
  3223      1
  3204      1
  3176      1
  3171      1
  3166      1
  3165      1
  3138      1
  3124      1
  3084      1
  3078      1
  3062      1
  3056      1
  3038      1
  3016      1
  3004      1
  2992      1
  2982      1
  2970      1
  2956      1
  2922      1
  2888      1
  2864      1
  2856      1
  2830      1
  2820      1
  2802      1
  2798      3
  2796      4
  2792      5
  2784      4
  2752      1
  2720      1
  2560      1
  2472      1
  2448      1
  2422      1
  2420      1
  2416      1
  2400      4
  2344      1
  2336      1
  2158      1
  2154      1
  2152      1
  2136      1
  2124      1
  2096      1
  2088      1
  2080      2
  2048      1
  2040      1
  2024      1
  2016      1
  1984      1
  1952      1
  1934      1
  1930      2
  1914      1
  1912      1
  1864      1
  1860      1
  1856      1
  1832      1
  1824      3
  1776      1
  1768      2
  1734      1
  1730      1
  1728      1
  1696      1
  1648      1
  1640      1
  1632      1
  1600      3
  1582      1
  1576      1
  1544      1
  1520      1
  1504      1
  1496      1
  1488      1
  1472      1
  1454      1
  1448      1
  1424      1
  1408      2
  1376      1
  1368      1
  1362      1
  1360      1
  1352      3
  1344      1
  1336      2
  1328      1
  1318      1
  1308      1
  1284      1
  1280      2
  1264      1
  1260      1
  1248      1
  1238      1
  1210      1
  1208      1
  1184      1
  1174      1
  1172      1
  1168      1
  1152      1
  1146      1
  1136      1
  1124      1
  1120      1
  1096      1
  1088      3
  1074      1
  1072      1
  1056      3
  1050      1
  1040      1
  1032      1
  1024      1
  1016      2
  1000      1
   996      1
   990      1
   976      1
   968      2
   966      2
   964      1
   960      1
   956      1
   952      2
   928      2
   920      1
   912      1
   898      1
   896      3
   892      1
   886      1
   884      1
   878      1
   876      1
   868      2
   864      2
   856      1
   852      1
   848      2
   840      1
   834      1
   828      1
   826      1
   808      2
   800      2
   796      1
   794      1
   788      1
   786      1
   784      2
   768      3
   760      2
   756      1
   752      1
   748      1
   744      1
   740      1
   736      2
   734      1
   732      2
   728      2
   726      1
   724      2
   720      1
   712      1
   708      1
   704      4
   700      2
   696      2
   688      1
   680      2
   676      3
   672      3
   668      1
   664      1
   658      1
   656      1
   652      1
   648      1
   644      1
   640      1
   632      4
   624      2
   616      1
   612      1
   608      3
   604      1
   596      1
   592      4
   588      1
   584      2
   576      4
   564      1
   560      4
   552      1
   544      1
   480      1
   458      1
   448      1
   384      1
   366      1
   360      1
   304      1
   298      1
   296      1
   288      2
   192      1
   174      1
   160      1

  TIME LIMIT REACHED: 3600
  TIME LIMIT REACHED: 3600
  TIME LIMIT REACHED: 3600
  TIME LIMIT REACHED: 3600



File: 801_40000_NR_32.txt  Instance No. 1
Sat Mar 14 21:22:58 2015

LP0 Time: 0 IPTime: 3601 The best integer solution (266):

1: 0:1 498:1 obj 1\\
1: 1:1 506:1 721:1 obj 1\\
1: 2:1 494:1 obj 1\\
1: 3:1 493:1 obj 1\\
1: 4:1 492:1 obj 1\\
1: 5:1 490:1 obj 1\\
1: 6:1 487:1 obj 1\\
1: 7:1 484:1 obj 1\\
1: 8:1 482:1 obj 1\\
1: 9:1 481:1 obj 1\\
1: 10:1 480:1 obj 1\\
1: 11:1 491:1 722:1 obj 1\\
1: 12:1 479:1 obj 1\\
1: 13:1 476:1 obj 1\\
1: 14:1 474:1 obj 1\\
1: 15:1 475:1 obj 1\\
1: 16:1 473:1 obj 1\\
1: 17:1 470:1 obj 1\\
1: 18:1 468:1 obj 1\\
1: 19:1 467:1 obj 1\\
1: 20:1 465:1 obj 1\\
1: 21:1 466:1 obj 1\\
1: 22:1 488:1 716:1 obj 1\\
1: 23:1 489:1 717:1 obj 1\\
1: 24:1 463:1 obj 1\\
1: 25:1 464:1 obj 1\\
1: 26:1 459:1 obj 1\\
1: 27:1 469:1 720:1 obj 1\\
1: 28:1 478:1 719:1 obj 1\\
1: 29:1 457:1 obj 1\\
1: 30:1 458:1 obj 1\\
1: 31:1 477:1 718:1 obj 1\\
1: 32:1 454:1 obj 1\\
1: 33:1 452:1 obj 1\\
1: 34:1 453:1 obj 1\\
1: 35:1 450:1 obj 1\\
1: 36:1 451:1 obj 1\\
1: 37:1 471:1 714:1 obj 1\\
1: 38:1 495:1 685:1 obj 1\\
1: 39:1 472:1 713:1 obj 1\\
1: 40:1 485:1 706:1 obj 1\\
1: 41:1 483:1 709:1 obj 1\\
1: 42:1 449:1 obj 1\\
1: 43:1 447:1 obj 1\\
1: 44:1 448:1 obj 1\\
1: 45:1 445:1 obj 1\\
1: 46:1 446:1 obj 1\\
1: 47:1 486:1 683:1 obj 1\\
1: 48:1 444:1 obj 1\\
1: 49:1 460:1 715:1 obj 1\\
1: 50:1 456:1 719:1 obj 1\\
1: 51:1 441:1 obj 1\\
1: 52:1 442:1 obj 1\\
1: 53:1 439:1 obj 1\\
1: 54:1 437:1 obj 1\\
1: 55:1 438:1 obj 1\\
1: 56:1 440:1 obj 1\\
1: 57:1 496:1 628:1 obj 1\\
1: 58:1 434:1 obj 1\\
1: 59:1 435:1 obj 1\\
1: 60:1 436:1 obj 1\\
1: 61:1 461:1 707:1 obj 1\\
1: 62:1 462:1 707:1 obj 1\\
1: 63:1 430:1 obj 1\\
1: 64:1 429:1 obj 1\\
1: 65:1 427:1 obj 1\\
1: 66:1 425:1 obj 1\\
1: 67:1 426:1 obj 1\\
1: 68:1 424:1 obj 1\\
1: 69:1 455:1 701:1 obj 1\\
1: 70:1 423:1 obj 1\\
1: 71:1 422:1 obj 1\\
1: 72:1 504:1 592:1 obj 1\\
1: 73:1 443:1 712:1 obj 1\\
1: 74:1 421:1 obj 1\\
1: 75:1 499:1 590:1 obj 1\\
1: 76:1 418:1 obj 1\\
1: 77:1 419:1 obj 1\\
1: 78:1 417:1 obj 1\\
1: 79:1 415:1 obj 1\\
1: 80:1 411:1 obj 1\\
1: 81:1 410:1 obj 1\\
1: 82:1 412:1 obj 1\\
1: 83:1 407:1 obj 1\\
1: 84:1 408:1 obj 1\\
1: 85:1 428:1 710:1 obj 1\\
1: 86:1 432:1 708:1 obj 1\\
1: 87:1 406:1 obj 1\\
1: 88:1 405:1 obj 1\\
1: 89:1 404:1 obj 1\\
1: 90:1 433:1 684:1 obj 1\\
1: 91:1 431:1 686:1 obj 1\\
1: 92:1 402:1 obj 1\\
1: 93:1 403:1 obj 1\\
1: 94:1 509:1 556:1 obj 1\\
1: 95:1 420:1 711:1 obj 1\\
1: 96:1 502:1 559:1 obj 1\\
1: 97:1 400:1 obj 1\\
1: 98:1 401:1 obj 1\\
1: 99:1 501:1 558:1 obj 1\\
1: 100:1 497:1 562:1 obj 1\\
1: 101:1 399:1 obj 1\\
1: 102:1 510:1 548:1 obj 1\\
1: 103:1 398:1 obj 1\\
1: 104:1 395:1 obj 1\\
1: 105:1 409:1 707:1 obj 1\\
1: 106:1 393:1 obj 1\\
1: 107:1 394:1 obj 1\\
1: 108:1 413:1 670:1 obj 1\\
1: 109:1 390:1 obj 1\\
1: 110:1 389:1 obj 1\\
1: 111:1 388:1 obj 1\\
1: 112:1 414:1 641:1 obj 1\\
1: 113:1 387:1 obj 1\\
1: 114:1 386:1 obj 1\\
1: 115:1 519:1 533:1 obj 1\\
1: 116:1 513:1 536:1 obj 1\\
1: 117:1 518:1 532:1 obj 1\\
1: 118:1 416:1 626:1 obj 1\\
1: 119:1 520:1 527:1 obj 1\\
1: 120:1 382:1 obj 1\\
1: 121:1 380:1 obj 1\\
1: 122:1 396:1 698:1 obj 1\\
1: 123:1 397:1 689:1 obj 1\\
1: 124:1 377:1 obj 1\\
1: 125:1 376:1 obj 1\\
1: 126:1 379:1 obj 1\\
1: 127:1 392:1 705:1 obj 1\\
1: 128:1 391:1 705:1 obj 1\\
1: 129:1 511:1 512:1 obj 1\\
1: 130:1 375:1 obj 1\\
1: 131:1 374:1 obj 1\\
1: 132:1 373:1 obj 1\\
1: 133:1 505:1 507:1 obj 1\\
1: 134:1 371:1 obj 1\\
1: 135:1 372:1 obj 1\\
1: 136:1 385:1 702:1 obj 1\\
1: 137:1 369:1 obj 1\\
1: 138:1 383:1 681:1 obj 1\\
1: 139:1 368:1 obj 1\\
1: 140:1 378:1 703:1 obj 1\\
1: 141:1 366:1 obj 1\\
1: 142:1 364:1 obj 1\\
1: 143:1 361:1 obj 1\\
1: 144:1 359:1 obj 1\\
1: 145:1 360:1 obj 1\\
1: 146:1 381:1 631:1 obj 1\\
1: 147:1 357:1 obj 1\\
1: 148:1 356:1 obj 1\\
1: 149:1 384:1 609:1 obj 1\\
1: 150:1 370:1 699:1 obj 1\\
1: 151:1 500:1 508:1 696:1 obj 1\\
1: 152:1 355:1 obj 1\\
1: 153:1 503:1 516:1 638:1 obj 1\\
1: 154:1 354:1 obj 1\\
1: 155:1 367:1 704:1 obj 1\\
1: 156:1 349:1 obj 1\\
1: 157:1 350:1 obj 1\\
1: 158:1 348:1 obj 1\\
1: 159:1 347:1 obj 1\\
1: 160:1 358:1 657:1 obj 1\\
1: 161:1 362:1 636:1 obj 1\\
1: 162:1 344:1 obj 1\\
1: 163:1 353:1 671:1 obj 1\\
1: 164:1 341:1 obj 1\\
1: 165:1 340:1 obj 1\\
1: 166:1 342:1 obj 1\\
1: 167:1 351:1 696:1 obj 1\\
1: 168:1 339:1 obj 1\\
1: 169:1 363:1 595:1 obj 1\\
1: 170:1 352:1 682:1 obj 1\\
1: 171:1 338:1 obj 1\\
1: 172:1 337:1 obj 1\\
1: 173:1 336:1 obj 1\\
1: 174:1 365:1 581:1 obj 1\\
1: 175:1 346:1 679:1 obj 1\\
1: 176:1 343:1 694:1 obj 1\\
1: 177:1 332:1 obj 1\\
1: 178:1 333:1 obj 1\\
1: 179:1 334:1 obj 1\\
1: 180:1 329:1 obj 1\\
1: 181:1 330:1 obj 1\\
1: 182:1 345:1 610:1 obj 1\\
1: 183:1 328:1 obj 1\\
1: 184:1 324:1 obj 1\\
1: 185:1 335:1 654:1 obj 1\\
1: 186:1 322:1 obj 1\\
1: 187:1 331:1 695:1 obj 1\\
1: 188:1 319:1 obj 1\\
1: 189:1 320:1 obj 1\\
1: 190:1 321:1 obj 1\\
1: 191:1 316:1 obj 1\\
1: 192:1 315:1 obj 1\\
1: 193:1 326:1 690:1 obj 1\\
1: 194:1 327:1 664:1 obj 1\\
1: 195:1 311:1 obj 1\\
1: 196:1 318:1 675:1 obj 1\\
1: 197:1 317:1 676:1 obj 1\\
1: 198:1 323:1 619:1 obj 1\\
1: 199:1 307:1 obj 1\\
1: 200:1 306:1 obj 1\\
1: 201:1 514:1 515:1 524:1 579:1 obj 1\\
1: 202:1 325:1 587:1 obj 1\\
1: 203:1 301:1 obj 1\\
1: 204:1 312:1 676:1 obj 1\\
1: 205:1 313:1 650:1 obj 1\\
1: 206:1 314:1 640:1 obj 1\\
1: 207:1 308:1 691:1 obj 1\\
1: 208:1 309:1 668:1 obj 1\\
1: 209:1 310:1 662:1 obj 1\\
1: 210:1 299:1 obj 1\\
1: 211:1 300:1 obj 1\\
1: 212:1 304:1 657:1 obj 1\\
1: 213:1 302:1 660:1 obj 1\\
1: 214:1 303:1 655:1 obj 1\\
1: 215:1 297:1 obj 1\\
1: 216:1 289:1 obj 1\\
1: 217:1 290:1 obj 1\\
1: 218:1 288:1 obj 1\\
1: 219:1 298:1 692:1 obj 1\\
1: 220:1 285:1 obj 1\\
1: 221:1 296:1 664:1 obj 1\\
1: 222:1 294:1 702:1 obj 1\\
1: 223:1 295:1 697:1 obj 1\\
1: 224:1 291:1 700:1 obj 1\\
1: 225:1 292:1 693:1 obj 1\\
1: 226:1 293:1 658:1 obj 1\\
1: 227:1 284:1 obj 1\\
1: 228:1 287:1 707:1 obj 1\\
1: 229:1 305:1 583:1 666:1 obj 1\\
1: 230:1 286:1 705:1 obj 1\\
1: 231:1 283:1 obj 1\\
1: 232:1 281:1 obj 1\\
1: 233:1 265:1 obj 1\\
1: 234:1 266:1 obj 1\\
1: 235:1 522:1 526:1 529:1 539:1 542:1 644:1 obj 1\\
1: 236:1 282:1 656:1 obj 1\\
1: 237:1 517:1 521:1 523:1 525:1 537:1 obj 1\\
1: 238:1 540:1 541:1 543:4 obj 1\\
1: 239:1 544:1 545:1 546:1 547:1 549:1 550:1 604:1 obj 1\\
1: 240:1 552:1 553:2 554:1 557:1 563:1 577:1 688:1 obj 1\\
1: 241:1 555:1 560:1 561:2 564:1 565:1 568:1 614:1 obj 1\\
1: 242:1 566:1 567:1 570:2 571:1 572:1 573:1 588:1 687:1 obj 1\\
1: 243:1 268:1 680:1 obj 1\\
1: 244:1 272:1 653:1 obj 1\\
1: 245:1 264:1 659:1 obj 1\\
1: 246:1 273:1 538:1 obj 1\\
1: 247:1 263:1 obj 1\\
1: 248:1 271:1 535:1 obj 1\\
1: 249:1 279:1 531:1 obj 1\\
1: 250:1 278:1 531:1 obj 1\\
1: 251:1 274:1 534:1 obj 1\\
1: 252:1 277:1 531:1 obj 1\\
1: 253:1 269:1 534:1 obj 1\\
1: 254:1 270:1 534:1 obj 1\\
1: 255:1 580:1 586:1 589:1 591:1 593:1 594:1 596:1 597:2 598:1 601:1 648:1 677:1 obj 1\\
1: 256:1 267:1 534:1 obj 1\\
1: 257:1 275:1 530:1 obj 1\\
1: 258:1 280:1 528:1 obj 1\\
1: 259:1 533:2 599:1 600:1 602:2 603:1 605:1 608:1 612:1 615:1 obj 1\\
1: 260:1 276:1 551:1 678:1 obj 1\\
1: 261:1 569:1 574:1 575:1 576:1 578:3 582:1 584:1 585:1 672:1 obj 1\\
1: 262:1 606:1 607:1 611:1 613:1 616:1 617:1 618:1 620:1 621:1 622:3 624:1 647:1 674:2 obj 1\\
1: 532:1 533:2 568:2 590:1 595:2 619:2 646:1 658:1 663:1 664:1 665:1 669:1 673:1 680:3 681:1 685:2 686:2 695:3 699:2 702:1 704:1 obj 1\\
1: 532:2 623:1 625:1 627:2 629:1 630:1 632:2 633:2 634:1 635:1 637:2 639:1 642:3 643:1 645:1 649:2 651:1 652:2 661:1 663:1 665:1 667:1 671:1 673:1 obj 1\\
1: 638:1 648:1 682:1 684:1 702:1 705:1 obj 1\\



The last LP solution 


File: 801_40000_NR_32.txt  Instance No. 1
Sat Mar 14 21:22:58 2015

LP solution: lpval=266 lpbnd=-1e+100

1: 0:1 498:1 obj 1\\
1: 1:1 506:1 721:1 obj 1\\
1: 2:1 494:1 obj 1\\
1: 3:1 493:1 obj 1\\
1: 4:1 492:1 obj 1\\
1: 5:1 490:1 obj 1\\
1: 6:1 487:1 obj 1\\
1: 7:1 484:1 obj 1\\
1: 8:1 482:1 obj 1\\
1: 9:1 481:1 obj 1\\
1: 10:1 480:1 obj 1\\
1: 11:1 491:1 722:1 obj 1\\
1: 12:1 479:1 obj 1\\
1: 13:1 476:1 obj 1\\
1: 14:1 474:1 obj 1\\
1: 15:1 475:1 obj 1\\
1: 16:1 473:1 obj 1\\
1: 17:1 470:1 obj 1\\
1: 18:1 468:1 obj 1\\
1: 19:1 467:1 obj 1\\
1: 20:1 465:1 obj 1\\
1: 21:1 466:1 obj 1\\
1: 22:1 488:1 716:1 obj 1\\
1: 23:1 489:1 717:1 obj 1\\
1: 24:1 463:1 obj 1\\
1: 25:1 464:1 obj 1\\
1: 26:1 459:1 obj 1\\
1: 27:1 469:1 720:1 obj 1\\
1: 28:1 478:1 719:1 obj 1\\
1: 29:1 457:1 obj 1\\
1: 30:1 458:1 obj 1\\
1: 31:1 477:1 718:1 obj 1\\
1: 32:1 454:1 obj 1\\
1: 33:1 452:1 obj 1\\
1: 34:1 453:1 obj 1\\
1: 35:1 450:1 obj 1\\
1: 36:1 451:1 obj 1\\
1: 37:1 471:1 714:1 obj 1\\
1: 38:1 495:1 685:1 obj 1\\
1: 39:1 472:1 713:1 obj 1\\
1: 40:1 485:1 706:1 obj 1\\
1: 41:1 483:1 709:1 obj 1\\
1: 42:1 449:1 obj 1\\
1: 43:1 447:1 obj 1\\
1: 44:1 448:1 obj 1\\
1: 45:1 445:1 obj 1\\
1: 46:1 446:1 obj 1\\
1: 47:1 486:1 683:1 obj 1\\
1: 48:1 444:1 obj 1\\
1: 49:1 460:1 715:1 obj 1\\
1: 50:1 456:1 719:1 obj 1\\
1: 51:1 441:1 obj 1\\
1: 52:1 442:1 obj 1\\
1: 53:1 439:1 obj 1\\
1: 54:1 437:1 obj 1\\
1: 55:1 438:1 obj 1\\
1: 56:1 440:1 obj 1\\
1: 57:1 496:1 628:1 obj 1\\
1: 58:1 434:1 obj 1\\
1: 59:1 435:1 obj 1\\
1: 60:1 436:1 obj 1\\
1: 61:1 461:1 707:1 obj 1\\
1: 62:1 462:1 707:1 obj 1\\
1: 63:1 430:1 obj 1\\
1: 64:1 429:1 obj 1\\
1: 65:1 427:1 obj 1\\
1: 66:1 425:1 obj 1\\
1: 67:1 426:1 obj 1\\
1: 68:1 424:1 obj 1\\
1: 69:1 455:1 701:1 obj 1\\
1: 70:1 423:1 obj 1\\
1: 71:1 422:1 obj 1\\
1: 72:1 504:1 592:1 obj 1\\
1: 73:1 443:1 712:1 obj 1\\
1: 74:1 421:1 obj 1\\
1: 75:1 499:1 590:1 obj 1\\
1: 76:1 418:1 obj 1\\
1: 77:1 419:1 obj 1\\
1: 78:1 417:1 obj 1\\
1: 79:1 415:1 obj 1\\
1: 80:1 411:1 obj 1\\
1: 81:1 410:1 obj 1\\
1: 82:1 412:1 obj 1\\
1: 83:1 407:1 obj 1\\
1: 84:1 408:1 obj 1\\
1: 85:1 428:1 710:1 obj 1\\
1: 86:1 432:1 708:1 obj 1\\
1: 87:1 406:1 obj 1\\
1: 88:1 405:1 obj 1\\
1: 89:1 404:1 obj 1\\
1: 90:1 433:1 684:1 obj 1\\
1: 91:1 431:1 686:1 obj 1\\
1: 92:1 402:1 obj 1\\
1: 93:1 403:1 obj 1\\
1: 94:1 509:1 556:1 obj 1\\
1: 95:1 420:1 711:1 obj 1\\
1: 96:1 502:1 559:1 obj 1\\
1: 97:1 400:1 obj 1\\
1: 98:1 401:1 obj 1\\
1: 99:1 501:1 558:1 obj 1\\
1: 100:1 497:1 562:1 obj 1\\
1: 101:1 399:1 obj 1\\
1: 102:1 510:1 548:1 obj 1\\
1: 103:1 398:1 obj 1\\
1: 104:1 395:1 obj 1\\
1: 105:1 409:1 707:1 obj 1\\
1: 106:1 393:1 obj 1\\
1: 107:1 394:1 obj 1\\
1: 108:1 413:1 670:1 obj 1\\
1: 109:1 390:1 obj 1\\
1: 110:1 389:1 obj 1\\
1: 111:1 388:1 obj 1\\
1: 112:1 414:1 641:1 obj 1\\
1: 113:1 387:1 obj 1\\
1: 114:1 386:1 obj 1\\
1: 115:1 519:1 533:1 obj 1\\
1: 116:1 513:1 536:1 obj 1\\
1: 117:1 518:1 532:1 obj 1\\
1: 118:1 416:1 626:1 obj 1\\
1: 119:1 520:1 527:1 obj 1\\
1: 120:1 382:1 obj 1\\
1: 121:1 380:1 obj 1\\
1: 122:1 396:1 698:1 obj 1\\
1: 123:1 397:1 689:1 obj 1\\
1: 124:1 377:1 obj 1\\
1: 125:1 376:1 obj 1\\
1: 126:1 379:1 obj 1\\
1: 127:1 392:1 705:1 obj 1\\
1: 128:1 391:1 705:1 obj 1\\
1: 129:1 511:1 512:1 obj 1\\
1: 130:1 375:1 obj 1\\
1: 131:1 374:1 obj 1\\
1: 132:1 373:1 obj 1\\
1: 133:1 505:1 507:1 obj 1\\
1: 134:1 371:1 obj 1\\
1: 135:1 372:1 obj 1\\
1: 136:1 385:1 702:1 obj 1\\
1: 137:1 369:1 obj 1\\
1: 138:1 383:1 681:1 obj 1\\
1: 139:1 368:1 obj 1\\
1: 140:1 378:1 703:1 obj 1\\
1: 141:1 366:1 obj 1\\
1: 142:1 364:1 obj 1\\
1: 143:1 361:1 obj 1\\
1: 144:1 359:1 obj 1\\
1: 145:1 360:1 obj 1\\
1: 146:1 381:1 631:1 obj 1\\
1: 147:1 357:1 obj 1\\
1: 148:1 356:1 obj 1\\
1: 149:1 384:1 609:1 obj 1\\
1: 150:1 370:1 699:1 obj 1\\
1: 151:1 500:1 508:1 696:1 obj 1\\
1: 152:1 355:1 obj 1\\
1: 153:1 503:1 516:1 638:1 obj 1\\
1: 154:1 354:1 obj 1\\
1: 155:1 367:1 704:1 obj 1\\
1: 156:1 349:1 obj 1\\
1: 157:1 350:1 obj 1\\
1: 158:1 348:1 obj 1\\
1: 159:1 347:1 obj 1\\
1: 160:1 358:1 657:1 obj 1\\
1: 161:1 362:1 636:1 obj 1\\
1: 162:1 344:1 obj 1\\
1: 163:1 353:1 671:1 obj 1\\
1: 164:1 341:1 obj 1\\
1: 165:1 340:1 obj 1\\
1: 166:1 342:1 obj 1\\
1: 167:1 351:1 696:1 obj 1\\
1: 168:1 339:1 obj 1\\
1: 169:1 363:1 595:1 obj 1\\
1: 170:1 352:1 682:1 obj 1\\
1: 171:1 338:1 obj 1\\
1: 172:1 337:1 obj 1\\
1: 173:1 336:1 obj 1\\
1: 174:1 365:1 581:1 obj 1\\
1: 175:1 346:1 679:1 obj 1\\
1: 176:1 343:1 694:1 obj 1\\
1: 177:1 332:1 obj 1\\
1: 178:1 333:1 obj 1\\
1: 179:1 334:1 obj 1\\
1: 180:1 329:1 obj 1\\
1: 181:1 330:1 obj 1\\
1: 182:1 345:1 610:1 obj 1\\
1: 183:1 328:1 obj 1\\
1: 184:1 324:1 obj 1\\
1: 185:1 335:1 654:1 obj 1\\
1: 186:1 322:1 obj 1\\
1: 187:1 331:1 695:1 obj 1\\
1: 188:1 319:1 obj 1\\
1: 189:1 320:1 obj 1\\
1: 190:1 321:1 obj 1\\
1: 191:1 316:1 obj 1\\
1: 192:1 315:1 obj 1\\
1: 193:1 326:1 690:1 obj 1\\
1: 194:1 327:1 664:1 obj 1\\
1: 195:1 311:1 obj 1\\
1: 196:1 318:1 675:1 obj 1\\
1: 197:1 317:1 676:1 obj 1\\
1: 198:1 323:1 619:1 obj 1\\
1: 199:1 307:1 obj 1\\
1: 200:1 306:1 obj 1\\
1: 201:1 514:1 515:1 524:1 579:1 obj 1\\
1: 202:1 325:1 587:1 obj 1\\
1: 203:1 301:1 obj 1\\
1: 204:1 312:1 676:1 obj 1\\
1: 205:1 313:1 650:1 obj 1\\
1: 206:1 314:1 640:1 obj 1\\
1: 207:1 308:1 691:1 obj 1\\
1: 208:1 309:1 668:1 obj 1\\
1: 209:1 310:1 662:1 obj 1\\
1: 210:1 299:1 obj 1\\
1: 211:1 300:1 obj 1\\
1: 212:1 304:1 657:1 obj 1\\
1: 213:1 302:1 660:1 obj 1\\
1: 214:1 303:1 655:1 obj 1\\
1: 215:1 297:1 obj 1\\
1: 216:1 289:1 obj 1\\
1: 217:1 290:1 obj 1\\
1: 218:1 288:1 obj 1\\
1: 219:1 298:1 692:1 obj 1\\
1: 220:1 285:1 obj 1\\
1: 221:1 296:1 664:1 obj 1\\
1: 222:1 294:1 702:1 obj 1\\
1: 223:1 295:1 697:1 obj 1\\
1: 224:1 291:1 700:1 obj 1\\
1: 225:1 292:1 693:1 obj 1\\
1: 226:1 293:1 658:1 obj 1\\
1: 227:1 284:1 obj 1\\
1: 228:1 287:1 707:1 obj 1\\
1: 229:1 305:1 583:1 666:1 obj 1\\
1: 230:1 286:1 705:1 obj 1\\
1: 231:1 283:1 obj 1\\
1: 232:1 281:1 obj 1\\
1: 233:1 265:1 obj 1\\
1: 234:1 266:1 obj 1\\
1: 235:1 522:1 526:1 529:1 539:1 542:1 644:1 obj 1\\
1: 236:1 282:1 656:1 obj 1\\
1: 237:1 517:1 521:1 523:1 525:1 537:1 obj 1\\
1: 238:1 540:1 541:1 543:4 obj 1\\
1: 239:1 544:1 545:1 546:1 547:1 549:1 550:1 604:1 obj 1\\
1: 240:1 552:1 553:2 554:1 557:1 563:1 577:1 688:1 obj 1\\
1: 241:1 555:1 560:1 561:2 564:1 565:1 568:1 614:1 obj 1\\
1: 242:1 566:1 567:1 570:2 571:1 572:1 573:1 588:1 687:1 obj 1\\
1: 243:1 268:1 680:1 obj 1\\
1: 244:1 272:1 653:1 obj 1\\
1: 245:1 264:1 659:1 obj 1\\
1: 246:1 273:1 538:1 obj 1\\
1: 247:1 263:1 obj 1\\
1: 248:1 271:1 535:1 obj 1\\
1: 249:1 279:1 531:1 obj 1\\
1: 250:1 278:1 531:1 obj 1\\
1: 251:1 274:1 534:1 obj 1\\
1: 252:1 277:1 531:1 obj 1\\
1: 253:1 269:1 534:1 obj 1\\
1: 254:1 270:1 534:1 obj 1\\
0.9999999999999993: 255:1 580:1 586:1 589:1 591:1 593:1 594:1 596:1 597:2 598:1 601:1 648:1 677:1 obj 1\\
1: 256:1 267:1 534:1 obj 1\\
1: 257:1 275:1 530:1 obj 1\\
1: 258:1 280:1 528:1 obj 1\\
0.9999999999999986: 259:1 533:2 599:1 600:1 602:2 603:1 605:1 608:1 612:1 615:1 obj 1\\
1: 260:1 276:1 551:1 678:1 obj 1\\
1: 261:1 569:1 574:1 575:1 576:1 578:3 582:1 584:1 585:1 672:1 obj 1\\
1.000000000000002: 262:1 606:1 607:1 611:1 613:1 616:1 617:1 618:1 620:1 621:1 622:3 624:1 647:1 674:2 obj 1\\
1.000000000000007: 532:1 533:2 568:2 590:1 595:2 619:2 646:1 658:1 663:1 664:1 665:1 669:1 673:1 680:3 681:1 685:2 686:2 695:3 699:2 702:1 704:1 obj 1\\
1.000000000000011: 532:2 623:1 625:1 627:2 629:1 630:1 632:2 633:2 634:1 635:1 637:2 639:1 642:3 643:1 645:1 649:2 651:1 652:2 661:1 663:1 665:1 667:1 671:1 673:1 obj 1\\
1.000000000000018: 638:1 648:1 682:1 684:1 702:1 705:1 obj 1\\



